NAME : N20ft305.dat.7247.tour
COMMENT : Length = 7247
COMMENT : Found by LKH [Keld Helsgaun] Sat Nov 11 16:41:59 2017
TYPE : TOUR
DIMENSION : 20
TOUR_SECTION
1
14
16
17
5
2
6
7
10
15
20
19
13
4
12
8
9
18
11
3
-1
EOF
